WARNING: for repeatability, setting FPU to use double precision
============================[ Problem Statistics ]=============================
|                                                                             |
|  Number of variables:            50                                         |
|  Number of clauses:             218                                         |
|  Parse time:                   0.00 s                                       |
|                                                                             |
============================[ Search Statistics ]==============================
| Conflicts |          ORIGINAL         |          LEARNT          | Progress |
|           |    Vars  Clauses Literals |    Limit  Clauses Lit/Cl |          |
===============================================================================
===============================================================================
restarts              : 1
conflicts             : 83             (54284 /sec)
decisions             : 92             (0.00 % random) (60170 /sec)
propagations          : 1089           (712230 /sec)
conflict literals     : 332            (16.37 % deleted)
Memory used           : 20.00 MB
CPU time              : 0.001529 s

UNSATISFIABLE
